
T = 9; %Numero de trabajadores
N = 2; %Numero de trabajadores por turno
D = 5; %Numero de dias a trabajar
MaxDT = 3; %Maximo dias consecutivos
MaxDL = 2;%Maximo dias libres consecutivos
MinDT = 3; %Minimo dias a trabajar
numIn = 2; %Numero de pares de incompatibles
rel = [|2,4|3,5|];% pares de incompatibles
noTurnos = [2,0,0,0,0,0,0,0,2]; %Los turnos que no quieren los empleados 0 es que no quiere ninguno
supervisores = {1,3,5,6,8,9}; %Los supervisores
